language ESSENCE' 1.0
$ loaded file: carseqdata/csplib-instance-48
letting numcars=200
letting numclasses=25
letting numoptions=5
letting optMax=[1, 2, 1, 2, 1]
letting windowSize=[2, 3, 3, 5, 5]
letting numberPerClass=[12, 1, 32, 3, 2, 17, 21, 4, 2, 3, 19, 3, 3, 6, 1, 1, 30, 2, 12, 1, 9, 4, 5, 5, 2]
letting optionsRequired=[[0, 1, 1, 0, 0], [0, 0, 1, 1, 1], [0, 0, 0, 1, 0], [0, 1, 0, 1, 1], [1, 1, 1, 0, 0], [0, 0, 1, 0, 0], [1, 0, 0, 0, 0], [1, 0, 0, 0, 1], [1, 0, 1, 1, 0], [1, 1, 0, 0, 1], [1, 1, 0, 0, 0], [0, 0, 1, 1, 0], [0, 1, 0, 0, 1], [1, 0, 1, 0, 0], [1, 0, 1, 0, 1], [0, 1, 1, 1, 1], [0, 1, 0, 0, 0], [0, 0, 1, 0, 1], [0, 1, 0, 1, 0], [1, 1, 0, 1, 1], [0, 0, 0, 0, 1], [0, 1, 1, 1, 0], [1, 1, 0, 1, 0], [1, 0, 0, 1, 0], [0, 0, 0, 0, 1]]
